4579147
95,48,13,10,163,39,26,192,86,189,3,195,80,70,201,185,211,45,174,173,191,46,65,125,17,194,110,122,69,23,226,32,156,51,99,132,139,197,47,124,131,43,44,155,207,20,27,107,96,91,133,87,165,37,196,117,36,151,161,150,224,216,52,2,212,6,146,106,18,59,97,7,81,205,68,58,38,103,171,170,166,169,140,162,14,206,218,33,142,1,112,78,74,120,104,90,4,179,184,9,200,19,61,221,141,41,180,129,143,84,181,167,60,220,8,137,93,12,198,114,214,134,5,30,144,40,22,63,83,71,152,113,42,177,101,75,50,153,217,203,228,21,56,222,77,54,219,182,25,123,79,55,130,89,215,126,159,121,204,175,24,168,187,136,149,213,154,94,183,210,229,108,62,49,34,102,31,127,67,118,11,158,109,66,82,88,202,29,16,28,116,145,227,193,85,119,73,105,53,186,35,72,92,178,188,148,209,157,135,98,138,208,230,225,223,147,100,128,172,115,190,199,111,176,64,15,160,164,76,57,95